p ocr 794 794 1891
1 795
1 796
2 795
2 796
2 800
3 796
3 797
4 797
4 798
5 798
5 799
6 799
6 800
6 804
7 800
7 801
8 801
8 802
9 802
9 803
10 803
10 804
10 808
11 804
11 805
12 805
12 806
13 806
13 807
14 807
14 808
14 811
15 808
15 809
16 809
16 810
17 810
17 811
17 815
18 811
18 812
19 812
19 813
20 813
20 814
21 814
21 815
21 817
22 815
22 816
23 816
23 817
23 820
24 817
24 818
25 818
25 819
26 819
26 820
26 821
27 820
27 821
27 822
28 821
28 822
28 823
29 822
29 823
29 825
30 823
30 824
31 824
31 825
31 826
32 825
32 826
32 830
33 826
33 827
34 827
34 828
35 828
35 829
36 829
36 830
36 832
37 830
37 831
38 831
38 832
38 833
39 832
39 833
39 834
40 833
40 834
40 837
41 834
41 835
42 835
42 836
43 836
43 837
43 838
44 837
44 838
44 842
45 838
45 839
46 839
46 840
47 840
47 841
48 841
48 842
48 844
49 842
49 843
50 843
50 844
50 845
51 844
51 845
51 847
52 845
52 846
53 846
53 847
53 849
54 847
54 848
55 848
55 849
55 852
56 849
56 850
57 850
57 851
58 851
58 852
58 853
59 852
59 853
59 857
60 853
60 854
61 854
61 855
62 855
62 856
63 856
63 857
63 859
64 857
64 858
65 858
65 859
65 860
66 859
66 860
66 863
67 860
67 861
68 861
68 862
69 862
69 863
69 865
70 863
70 864
71 864
71 865
71 868
72 865
72 866
73 866
73 867
74 867
74 868
74 872
75 868
75 869
76 869
76 870
77 870
77 871
78 871
78 872
78 876
79 872
79 873
80 873
80 874
81 874
81 875
82 875
82 876
82 877
83 876
83 877
83 881
84 877
84 878
85 878
85 879
86 879
86 880
87 880
87 881
87 882
88 881
88 882
88 886
89 882
89 883
90 883
90 884
91 884
91 885
92 885
92 886
92 890
93 886
93 887
94 887
94 888
95 888
95 889
96 889
96 890
96 891
97 890
97 891
97 894
98 891
98 892
99 892
99 893
100 893
100 894
100 897
101 894
101 895
102 895
102 896
103 896
103 897
103 900
104 897
104 898
105 898
105 899
106 899
106 900
106 903
107 900
107 901
108 901
108 902
109 902
109 903
109 905
110 903
110 904
111 904
111 905
111 908
112 905
112 906
113 906
113 907
114 907
114 908
114 909
115 908
115 909
115 913
116 909
116 910
117 910
117 911
118 911
118 912
119 912
119 913
119 914
120 913
120 914
120 915
121 914
121 915
121 918
122 915
122 916
123 916
123 917
124 917
124 918
124 921
125 918
125 919
126 919
126 920
127 920
127 921
127 922
128 921
128 922
128 926
129 922
129 923
130 923
130 924
131 924
131 925
132 925
132 926
132 929
133 926
133 927
134 927
134 928
135 928
135 929
135 930
136 929
136 930
136 934
137 930
137 931
138 931
138 932
139 932
139 933
140 933
140 934
140 936
141 934
141 935
142 935
142 936
142 939
143 936
143 937
144 937
144 938
145 938
145 939
145 942
146 939
146 940
147 940
147 941
148 941
148 942
148 943
149 942
149 943
149 946
150 943
150 944
151 944
151 945
152 945
152 946
152 948
153 946
153 947
154 947
154 948
154 952
155 948
155 949
156 949
156 950
157 950
157 951
158 951
158 952
158 954
159 952
159 953
160 953
160 954
160 958
161 954
161 955
162 955
162 956
163 956
163 957
164 957
164 958
164 962
165 958
165 959
166 959
166 960
167 960
167 961
168 961
168 962
168 965
169 962
169 963
170 963
170 964
171 964
171 965
171 968
172 965
172 966
173 966
173 967
174 967
174 968
174 971
175 968
175 969
176 969
176 970
177 970
177 971
177 974
178 971
178 972
179 972
179 973
180 973
180 974
180 975
181 974
181 975
181 978
182 975
182 976
183 976
183 977
184 977
184 978
184 980
185 978
185 979
186 979
186 980
186 984
187 980
187 981
188 981
188 982
189 982
189 983
190 983
190 984
190 987
191 984
191 985
192 985
192 986
193 986
193 987
193 988
194 987
194 988
194 990
195 988
195 989
196 989
196 990
196 991
197 990
197 991
197 993
198 991
198 992
199 992
199 993
199 994
200 993
200 994
200 996
201 994
201 995
202 995
202 996
202 999
203 996
203 997
204 997
204 998
205 998
205 999
205 1003
206 999
206 1000
207 1000
207 1001
208 1001
208 1002
209 1002
209 1003
209 1005
210 1003
210 1004
211 1004
211 1005
211 1008
212 1005
212 1006
213 1006
213 1007
214 1007
214 1008
214 1011
215 1008
215 1009
216 1009
216 1010
217 1010
217 1011
217 1012
218 1011
218 1012
218 1014
219 1012
219 1013
220 1013
220 1014
220 1018
221 1014
221 1015
222 1015
222 1016
223 1016
223 1017
224 1017
224 1018
224 1019
225 1018
225 1019
225 1023
226 1019
226 1020
227 1020
227 1021
228 1021
228 1022
229 1022
229 1023
229 1025
230 1023
230 1024
231 1024
231 1025
231 1029
232 1025
232 1026
233 1026
233 1027
234 1027
234 1028
235 1028
235 1029
235 1033
236 1029
236 1030
237 1030
237 1031
238 1031
238 1032
239 1032
239 1033
239 1035
240 1033
240 1034
241 1034
241 1035
241 1036
242 1035
242 1036
242 1039
243 1036
243 1037
244 1037
244 1038
245 1038
245 1039
245 1043
246 1039
246 1040
247 1040
247 1041
248 1041
248 1042
249 1042
249 1043
249 1046
250 1043
250 1044
251 1044
251 1045
252 1045
252 1046
252 1049
253 1046
253 1047
254 1047
254 1048
255 1048
255 1049
255 1050
256 1049
256 1050
256 1051
257 1050
257 1051
257 1053
258 1051
258 1052
259 1052
259 1053
259 1056
260 1053
260 1054
261 1054
261 1055
262 1055
262 1056
262 1059
263 1056
263 1057
264 1057
264 1058
265 1058
265 1059
265 1062
266 1059
266 1060
267 1060
267 1061
268 1061
268 1062
268 1063
269 1062
269 1063
269 1066
270 1063
270 1064
271 1064
271 1065
272 1065
272 1066
272 1069
273 1066
273 1067
274 1067
274 1068
275 1068
275 1069
275 1071
276 1069
276 1070
277 1070
277 1071
277 1075
278 1071
278 1072
279 1072
279 1073
280 1073
280 1074
281 1074
281 1075
281 1076
282 1075
282 1076
282 1078
283 1076
283 1077
284 1077
284 1078
284 1079
285 1078
285 1079
285 1083
286 1079
286 1080
287 1080
287 1081
288 1081
288 1082
289 1082
289 1083
289 1085
290 1083
290 1084
291 1084
291 1085
291 1087
292 1085
292 1086
293 1086
293 1087
293 1090
294 1087
294 1088
295 1088
295 1089
296 1089
296 1090
296 1093
297 1090
297 1091
298 1091
298 1092
299 1092
299 1093
299 1096
300 1093
300 1094
301 1094
301 1095
302 1095
302 1096
302 1100
303 1096
303 1097
304 1097
304 1098
305 1098
305 1099
306 1099
306 1100
306 1103
307 1100
307 1101
308 1101
308 1102
309 1102
309 1103
309 1105
310 1103
310 1104
311 1104
311 1105
311 1109
312 1105
312 1106
313 1106
313 1107
314 1107
314 1108
315 1108
315 1109
315 1112
316 1109
316 1110
317 1110
317 1111
318 1111
318 1112
318 1113
319 1112
319 1113
319 1117
320 1113
320 1114
321 1114
321 1115
322 1115
322 1116
323 1116
323 1117
323 1121
324 1117
324 1118
325 1118
325 1119
326 1119
326 1120
327 1120
327 1121
327 1125
328 1121
328 1122
329 1122
329 1123
330 1123
330 1124
331 1124
331 1125
331 1127
332 1125
332 1126
333 1126
333 1127
333 1130
334 1127
334 1128
335 1128
335 1129
336 1129
336 1130
336 1132
337 1130
337 1131
338 1131
338 1132
338 1134
339 1132
339 1133
340 1133
340 1134
340 1136
341 1134
341 1135
342 1135
342 1136
342 1139
343 1136
343 1137
344 1137
344 1138
345 1138
345 1139
345 1143
346 1139
346 1140
347 1140
347 1141
348 1141
348 1142
349 1142
349 1143
349 1145
350 1143
350 1144
351 1144
351 1145
351 1146
352 1145
352 1146
352 1149
353 1146
353 1147
354 1147
354 1148
355 1148
355 1149
355 1150
356 1149
356 1150
356 1154
357 1150
357 1151
358 1151
358 1152
359 1152
359 1153
360 1153
360 1154
360 1157
361 1154
361 1155
362 1155
362 1156
363 1156
363 1157
363 1161
364 1157
364 1158
365 1158
365 1159
366 1159
366 1160
367 1160
367 1161
367 1164
368 1161
368 1162
369 1162
369 1163
370 1163
370 1164
370 1168
371 1164
371 1165
372 1165
372 1166
373 1166
373 1167
374 1167
374 1168
374 1170
375 1168
375 1169
376 1169
376 1170
376 1173
377 1170
377 1171
378 1171
378 1172
379 1172
379 1173
379 1177
380 1173
380 1174
381 1174
381 1175
382 1175
382 1176
383 1176
383 1177
383 1178
384 1177
384 1178
384 1179
385 1178
385 1179
385 1183
386 1179
386 1180
387 1180
387 1181
388 1181
388 1182
389 1182
389 1183
389 1185
390 1183
390 1184
391 1184
391 1185
391 1187
392 1185
392 1186
393 1186
393 1187
393 1188
394 1187
394 1188
394 1190
395 1188
395 1189
396 1189
396 1190
396 1194
397 1190
397 1191
398 1191
398 1192
399 1192
399 1193
400 1193
400 1194
400 1197
401 1194
401 1195
402 1195
402 1196
403 1196
403 1197
403 1199
404 1197
404 1198
405 1198
405 1199
405 1200
406 1199
406 1200
406 1201
407 1200
407 1201
407 1203
408 1201
408 1202
409 1202
409 1203
409 1205
410 1203
410 1204
411 1204
411 1205
411 1209
412 1205
412 1206
413 1206
413 1207
414 1207
414 1208
415 1208
415 1209
415 1211
416 1209
416 1210
417 1210
417 1211
417 1214
418 1211
418 1212
419 1212
419 1213
420 1213
420 1214
420 1217
421 1214
421 1215
422 1215
422 1216
423 1216
423 1217
423 1220
424 1217
424 1218
425 1218
425 1219
426 1219
426 1220
426 1223
427 1220
427 1221
428 1221
428 1222
429 1222
429 1223
429 1226
430 1223
430 1224
431 1224
431 1225
432 1225
432 1226
432 1228
433 1226
433 1227
434 1227
434 1228
434 1231
435 1228
435 1229
436 1229
436 1230
437 1230
437 1231
437 1232
438 1231
438 1232
438 1235
439 1232
439 1233
440 1233
440 1234
441 1234
441 1235
441 1238
442 1235
442 1236
443 1236
443 1237
444 1237
444 1238
444 1242
445 1238
445 1239
446 1239
446 1240
447 1240
447 1241
448 1241
448 1242
448 1246
449 1242
449 1243
450 1243
450 1244
451 1244
451 1245
452 1245
452 1246
452 1250
453 1246
453 1247
454 1247
454 1248
455 1248
455 1249
456 1249
456 1250
456 1253
457 1250
457 1251
458 1251
458 1252
459 1252
459 1253
459 1256
460 1253
460 1254
461 1254
461 1255
462 1255
462 1256
462 1260
463 1256
463 1257
464 1257
464 1258
465 1258
465 1259
466 1259
466 1260
466 1262
467 1260
467 1261
468 1261
468 1262
468 1266
469 1262
469 1263
470 1263
470 1264
471 1264
471 1265
472 1265
472 1266
472 1270
473 1266
473 1267
474 1267
474 1268
475 1268
475 1269
476 1269
476 1270
476 1272
477 1270
477 1271
478 1271
478 1272
478 1274
479 1272
479 1273
480 1273
480 1274
480 1277
481 1274
481 1275
482 1275
482 1276
483 1276
483 1277
483 1280
484 1277
484 1278
485 1278
485 1279
486 1279
486 1280
486 1283
487 1280
487 1281
488 1281
488 1282
489 1282
489 1283
489 1285
490 1283
490 1284
491 1284
491 1285
491 1288
492 1285
492 1286
493 1286
493 1287
494 1287
494 1288
494 1289
495 1288
495 1289
495 1291
496 1289
496 1290
497 1290
497 1291
497 1294
498 1291
498 1292
499 1292
499 1293
500 1293
500 1294
500 1296
501 1294
501 1295
502 1295
502 1296
502 1299
503 1296
503 1297
504 1297
504 1298
505 1298
505 1299
505 1300
506 1299
506 1300
506 1303
507 1300
507 1301
508 1301
508 1302
509 1302
509 1303
509 1305
510 1303
510 1304
511 1304
511 1305
511 1308
512 1305
512 1306
513 1306
513 1307
514 1307
514 1308
514 1312
515 1308
515 1309
516 1309
516 1310
517 1310
517 1311
518 1311
518 1312
518 1316
519 1312
519 1313
520 1313
520 1314
521 1314
521 1315
522 1315
522 1316
522 1319
523 1316
523 1317
524 1317
524 1318
525 1318
525 1319
525 1321
526 1319
526 1320
527 1320
527 1321
527 1322
528 1321
528 1322
528 1326
529 1322
529 1323
530 1323
530 1324
531 1324
531 1325
532 1325
532 1326
532 1328
533 1326
533 1327
534 1327
534 1328
534 1332
535 1328
535 1329
536 1329
536 1330
537 1330
537 1331
538 1331
538 1332
538 1335
539 1332
539 1333
540 1333
540 1334
541 1334
541 1335
541 1337
542 1335
542 1336
543 1336
543 1337
543 1340
544 1337
544 1338
545 1338
545 1339
546 1339
546 1340
546 1343
547 1340
547 1341
548 1341
548 1342
549 1342
549 1343
549 1346
550 1343
550 1344
551 1344
551 1345
552 1345
552 1346
552 1348
553 1346
553 1347
554 1347
554 1348
554 1351
555 1348
555 1349
556 1349
556 1350
557 1350
557 1351
557 1355
558 1351
558 1352
559 1352
559 1353
560 1353
560 1354
561 1354
561 1355
561 1357
562 1355
562 1356
563 1356
563 1357
563 1361
564 1357
564 1358
565 1358
565 1359
566 1359
566 1360
567 1360
567 1361
567 1364
568 1361
568 1362
569 1362
569 1363
570 1363
570 1364
570 1368
571 1364
571 1365
572 1365
572 1366
573 1366
573 1367
574 1367
574 1368
574 1372
575 1368
575 1369
576 1369
576 1370
577 1370
577 1371
578 1371
578 1372
578 1373
579 1372
579 1373
579 1377
580 1373
580 1374
581 1374
581 1375
582 1375
582 1376
583 1376
583 1377
583 1381
584 1377
584 1378
585 1378
585 1379
586 1379
586 1380
587 1380
587 1381
587 1385
588 1381
588 1382
589 1382
589 1383
590 1383
590 1384
591 1384
591 1385
591 1388
592 1385
592 1386
593 1386
593 1387
594 1387
594 1388
594 1389
595 1388
595 1389
595 1392
596 1389
596 1390
597 1390
597 1391
598 1391
598 1392
598 1395
599 1392
599 1393
600 1393
600 1394
601 1394
601 1395
601 1398
602 1395
602 1396
603 1396
603 1397
604 1397
604 1398
604 1401
605 1398
605 1399
606 1399
606 1400
607 1400
607 1401
607 1405
608 1401
608 1402
609 1402
609 1403
610 1403
610 1404
611 1404
611 1405
611 1406
612 1405
612 1406
612 1409
613 1406
613 1407
614 1407
614 1408
615 1408
615 1409
615 1410
616 1409
616 1410
616 1413
617 1410
617 1411
618 1411
618 1412
619 1412
619 1413
619 1416
620 1413
620 1414
621 1414
621 1415
622 1415
622 1416
622 1418
623 1416
623 1417
624 1417
624 1418
624 1419
625 1418
625 1419
625 1420
626 1419
626 1420
626 1423
627 1420
627 1421
628 1421
628 1422
629 1422
629 1423
629 1427
630 1423
630 1424
631 1424
631 1425
632 1425
632 1426
633 1426
633 1427
633 1431
634 1427
634 1428
635 1428
635 1429
636 1429
636 1430
637 1430
637 1431
637 1432
638 1431
638 1432
638 1434
639 1432
639 1433
640 1433
640 1434
640 1437
641 1434
641 1435
642 1435
642 1436
643 1436
643 1437
643 1441
644 1437
644 1438
645 1438
645 1439
646 1439
646 1440
647 1440
647 1441
647 1444
648 1441
648 1442
649 1442
649 1443
650 1443
650 1444
650 1447
651 1444
651 1445
652 1445
652 1446
653 1446
653 1447
653 1449
654 1447
654 1448
655 1448
655 1449
655 1453
656 1449
656 1450
657 1450
657 1451
658 1451
658 1452
659 1452
659 1453
659 1457
660 1453
660 1454
661 1454
661 1455
662 1455
662 1456
663 1456
663 1457
663 1459
664 1457
664 1458
665 1458
665 1459
665 1461
666 1459
666 1460
667 1460
667 1461
667 1464
668 1461
668 1462
669 1462
669 1463
670 1463
670 1464
670 1466
671 1464
671 1465
672 1465
672 1466
672 1468
673 1466
673 1467
674 1467
674 1468
674 1472
675 1468
675 1469
676 1469
676 1470
677 1470
677 1471
678 1471
678 1472
678 1473
679 1472
679 1473
679 1474
680 1473
680 1474
680 1478
681 1474
681 1475
682 1475
682 1476
683 1476
683 1477
684 1477
684 1478
684 1482
685 1478
685 1479
686 1479
686 1480
687 1480
687 1481
688 1481
688 1482
688 1484
689 1482
689 1483
690 1483
690 1484
690 1487
691 1484
691 1485
692 1485
692 1486
693 1486
693 1487
693 1488
694 1487
694 1488
694 1491
695 1488
695 1489
696 1489
696 1490
697 1490
697 1491
697 1494
698 1491
698 1492
699 1492
699 1493
700 1493
700 1494
700 1495
701 1494
701 1495
701 1496
702 1495
702 1496
702 1499
703 1496
703 1497
704 1497
704 1498
705 1498
705 1499
705 1502
706 1499
706 1500
707 1500
707 1501
708 1501
708 1502
708 1506
709 1502
709 1503
710 1503
710 1504
711 1504
711 1505
712 1505
712 1506
712 1510
713 1506
713 1507
714 1507
714 1508
715 1508
715 1509
716 1509
716 1510
716 1511
717 1510
717 1511
717 1514
718 1511
718 1512
719 1512
719 1513
720 1513
720 1514
720 1518
721 1514
721 1515
722 1515
722 1516
723 1516
723 1517
724 1517
724 1518
724 1521
725 1518
725 1519
726 1519
726 1520
727 1520
727 1521
727 1522
728 1521
728 1522
728 1523
729 1522
729 1523
729 1525
730 1523
730 1524
731 1524
731 1525
731 1526
732 1525
732 1526
732 1527
733 1526
733 1527
733 1529
734 1527
734 1528
735 1528
735 1529
735 1532
736 1529
736 1530
737 1530
737 1531
738 1531
738 1532
738 1535
739 1532
739 1533
740 1533
740 1534
741 1534
741 1535
741 1539
742 1535
742 1536
743 1536
743 1537
744 1537
744 1538
745 1538
745 1539
745 1541
746 1539
746 1540
747 1540
747 1541
747 1543
748 1541
748 1542
749 1542
749 1543
749 1546
750 1543
750 1544
751 1544
751 1545
752 1545
752 1546
752 1549
753 1546
753 1547
754 1547
754 1548
755 1548
755 1549
755 1551
756 1549
756 1550
757 1550
757 1551
757 1555
758 1551
758 1552
759 1552
759 1553
760 1553
760 1554
761 1554
761 1555
761 1559
762 1555
762 1556
763 1556
763 1557
764 1557
764 1558
765 1558
765 1559
765 1562
766 1559
766 1560
767 1560
767 1561
768 1561
768 1562
768 1563
769 1562
769 1563
769 1565
770 1563
770 1564
771 1564
771 1565
771 1569
772 1565
772 1566
773 1566
773 1567
774 1567
774 1568
775 1568
775 1569
775 1571
776 1569
776 1570
777 1570
777 1571
777 1575
778 1571
778 1572
779 1572
779 1573
780 1573
780 1574
781 1574
781 1575
781 1579
782 1575
782 1576
783 1576
783 1577
784 1577
784 1578
785 1578
785 1579
785 1581
786 1579
786 1580
787 1580
787 1581
787 1583
788 1581
788 1582
789 1582
789 1583
789 1586
790 1583
790 1584
791 1584
791 1585
792 1585
792 1586
792 1588
793 1586
793 1587
794 1587
794 1588